CMPL model generation - running

CMPL version: 1.11.0
Authors: Thomas Schleiff, Mike Steglich
Distributed under the GPLv3 

create model instance ...
write model instance ...
CMPL model generation - finished

Solver - running


Welcome to IBM(R) ILOG(R) CPLEX(R) Interactive Optimizer 12.7.1.0
  with Simplex, Mixed Integer & Barrier Optimizers
5725-A06 5725-A29 5724-Y48 5724-Y49 5724-Y54 5724-Y55 5655-Y21
Copyright IBM Corp. 1988, 2017.  All Rights Reserved.

Type 'help' for a list of available commands.
Type 'help' followed by a command name for more
information on commands.

CPLEX> Specified objective sense: MINIMIZE
Selected objective  name:  line[1]
Selected RHS        name:  RHS
Selected bound      name:  BOUND
Problem '/tmp/cmpl.T27332.mps' read.
Read time = 0.10 sec. (16.18 ticks)
CPLEX> New value for mixed integer optimality gap tolerance: 0.007
CPLEX> CPLEX> CPXPARAM_Read_APIEncoding                        "UTF-8"
CPXPARAM_MIP_Tolerances_MIPGap                   0.0070000000000000001
Tried aggregator 3 times.
MIP Presolve eliminated 65078 rows and 42630 columns.
MIP Presolve modified 6556 coefficients.
Aggregator did 1411 substitutions.
Reduced MIP has 5676 rows, 4152 columns, and 17507 nonzeros.
Reduced MIP has 2828 binaries, 0 generals, 0 SOSs, and 0 indicators.
Presolve time = 0.14 sec. (83.95 ticks)
Found incumbent of value 3806.690427 after 0.16 sec. (98.58 ticks)
Probing fixed 0 vars, tightened 635 bounds.
Probing time = 0.04 sec. (14.12 ticks)
Tried aggregator 1 time.
MIP Presolve modified 1639 coefficients.
Reduced MIP has 5676 rows, 4152 columns, and 17507 nonzeros.
Reduced MIP has 2996 binaries, 0 generals, 0 SOSs, and 0 indicators.
Presolve time = 0.02 sec. (13.49 ticks)
Probing time = 0.01 sec. (2.76 ticks)
Clique table members: 2378.
MIP emphasis: balance optimality and feasibility.
MIP search method: dynamic search.
Parallel mode: none, using 1 thread.
Root relaxation solution time = 0.18 sec. (149.69 ticks)

        Nodes                                         Cuts/
   Node  Left     Objective  IInf  Best Integer    Best Bound    ItCnt     Gap

*     0+    0                         3806.6904     -358.5522           109.42%
      0     0     1726.3944   386     3806.6904     1726.3944     4432   54.65%
*     0+    0                         1754.4359     1726.3944             1.60%
      0     0     1728.2381   376     1754.4359     Cuts: 322     5393    1.49%
*     0+    0                         1753.0944     1728.2381             1.42%
      0     0     1729.0506   359     1753.0944     Cuts: 350     6362    1.37%
*     0+    0                         1749.6085     1729.0506             1.18%
      0     0     1729.8829   352     1749.6085     Cuts: 392     7214    1.13%
*     0+    0                         1747.5681     1729.8829             1.01%
      0     0     1730.5238   354     1747.5681     Cuts: 369     7892    0.98%
*     0+    0                         1747.4083     1730.5238             0.97%
      0     0     1731.1328   354     1747.4083     Cuts: 362     8439    0.93%
      0     0     1731.6889   358     1747.4083     Cuts: 317     8870    0.90%
      0     0     1732.1282   359     1747.4083     Cuts: 252     9188    0.87%
      0     0     1732.5406   364     1747.4083     Cuts: 240     9504    0.85%
      0     0     1732.8035   360     1747.4083     Cuts: 216     9834    0.84%
      0     0     1732.9422   362     1747.4083     Cuts: 131    10050    0.83%
      0     0     1733.0590   361     1747.4083     Cuts: 119    10244    0.82%
*     0+    0                         1743.4950     1733.0590             0.60%

Flow cuts applied:  546
Mixed integer rounding cuts applied:  560
Gomory fractional cuts applied:  5

Root node processing (before b&c):
  Real time             =    2.54 sec. (1984.49 ticks)
Sequential b&c:
  Real time             =    0.00 sec. (0.00 ticks)
                          ------------
Total (root+branch&cut) =    2.54 sec. (1984.49 ticks)

Solution pool: 7 solutions saved.

MIP - Integer optimal, tolerance (0.007/1e-06):  Objective =  1.7434949600e+03
Current MIP best bound =  1.7330589885e+03 (gap = 10.436, 0.60%)
Solution time =    2.54 sec.  Iterations = 10244  Nodes = 0 (1)
Deterministic time = 1984.63 ticks  (781.07 ticks/sec)

CPLEX> Incumbent solution written to file '/tmp/cmpl.T27332.gsol'.
CPLEX> 
CMPL: Time used for model generation: 10 seconds
CMPL: Time used for solving the model: 4 seconds


Solution written to ASCII file: /media/sf_ltf/results/output_generated/2016-03-07-4/fair-nonlinear.sol

Solver - finished
